peakDumbCharging = 29600; 
Machine = anon_enum(16); 
machineSpeed = [3700,3700,3700,3700,3700,3700,3700,3700,3700,3700,3700,3700,3700,3700,3700,3700]; 
machineLoad = [3700,3700,3700,3700,3700,3700,3700,3700,3700,3700,3700,3700,3700,3700,3700,3700]; 
Car = anon_enum(38); 
demandCar = [5600,22200,3840,11920,24400,2040,8160,13040,3960,10280,7440,3760,8000,9840,13440,3800,13520,7360,8320,4200,1240,7720,11880,9440,8200,26720,7760,26400,12640,480,12720,6720,5040,11360,17600,13080,1600,8160]; 
arrivalCar = [70,67,66,63,62,62,60,59,58,58,58,58,56,55,53,53,53,51,51,50,49,48,46,45,45,45,45,45,45,42,40,39,38,37,36,35,33,33]; 
departureCar = [72,75,69,68,70,64,64,65,61,62,61,61,60,62,72,56,58,55,58,53,51,55,51,57,49,56,48,58,52,44,45,42,43,45,47,43,35,36]; 
